<number of tasks>
50

<cycle time>
1000

<order strength>
0.198


<task times>
1 590
2 451
3 328
4 533
5 274
6 381
7 566
8 462
9 537
10 542
11 396
12 267
13 697
14 502
15 158
16 376
17 634
18 503
19 393
20 549
21 562
22 460
23 493
24 388
25 376
26 551
27 359
28 638
29 510
30 379
31 543
32 641
33 712
34 272
35 376
36 390
37 557
38 651
39 554
40 598
41 323
42 339
43 511
44 356
45 756
46 440
47 557
48 476
49 573
50 474

<precedence relations>
1,10
1,27
1,50
2,13
2,39
3,9
5,8
5,11
5,12
6,12
6,49
8,25
10,18
11,17
11,19
11,43
12,14
12,16
12,33
13,15
15,21
16,20
16,24
17,25
17,26
17,27
18,22
19,23
19,24
20,31
20,44
22,39
23,30
23,33
24,29
24,34
26,32
27,28
29,35
30,39
31,36
31,37
31,38
31,48
35,44
35,46
36,45
37,40
37,43
39,41
39,42
41,47
41,48
42,49
44,50

<end>
